p cnf 46 146
-2 6 34 0
2 -7 -14 0
-2 8 -31 0
-2 9 39 0
2 -9 46 0
-2 -21 -33 0
2 30 42 0
-3 9 -42 0
3 -11 26 0
3 -12 -21 0
-3 13 -30 0
-3 -15 -36 0
3 16 -37 0
-3 -20 -23 0
3 20 33 0
3 -21 -45 0
-3 23 44 0
3 34 -38 0
-4 10 -45 0
4 -20 -24 0
4 21 -30 0
-4 22 -29 0
-4 31 38 0
-4 36 -43 0
-5 -6 30 0
5 -11 -32 0
5 -12 28 0
-5 -15 -41 0
-5 -19 -36 0
-5 20 -26 0
5 -21 40 0
6 8 10 0
-6 9 10 0
6 11 -38 0
6 19 -28 0
-6 22 24 0
-6 42 -44 0
7 -13 -16 0
7 -13 -43 0
-7 16 45 0
-7 17 -18 0
7 -23 41 0
7 29 -46 0
-7 -40 43 0
-7 -40 -43 0
-8 11 -22 0
-8 12 16 0
8 -18 31 0
8 -22 -35 0
-9 12 -33 0
-9 -12 43 0
9 -16 -38 0
9 20 21 0
-9 -21 35 0
-9 -25 26 0
9 -36 41 0
10 11 -16 0
-10 14 -34 0
-10 -15 -18 0
-10 -15 -40 0
-10 -15 -41 0
-10 16 20 0
-10 -17 45 0
10 22 44 0
-10 -24 25 0
-10 -24 37 0
10 24 -41 0
-10 -26 -34 0
-10 37 40 0
-10 41 -46 0
-11 13 33 0
-11 15 -26 0
-11 15 -39 0
11 -16 -38 0
-11 -16 42 0
-11 22 26 0
-11 23 41 0
-11 -23 42 0
11 29 -33 0
-11 34 39 0
-12 -23 -39 0
-12 -26 31 0
-13 -16 -31 0
13 18 -44 0
13 -22 -35 0
13 -24 31 0
13 -26 -34 0
13 28 -41 0
13 -38 -41 0
13 38 -45 0
13 -39 -41 0
14 15 -36 0
14 18 45 0
-14 19 -22 0
14 -19 -43 0
-14 20 25 0
-14 -21 39 0
-14 -23 -29 0
-14 -26 -36 0
-14 35 -37 0
15 -17 -29 0
15 -17 -42 0
-15 -19 -35 0
15 -20 43 0
15 28 -40 0
-15 28 -41 0
15 30 36 0
16 21 30 0
16 -22 29 0
16 25 26 0
16 25 -26 0
16 -25 -42 0
-16 31 42 0
17 20 -36 0
17 20 46 0
-19 -20 -28 0
19 -32 39 0
-19 34 43 0
19 -37 -44 0
19 39 -44 0
20 25 -32 0
-20 28 38 0
-20 28 -40 0
-20 33 41 0
-20 38 41 0
-21 -28 39 0
21 31 34 0
-21 41 -42 0
22 -23 -45 0
-22 -24 32 0
22 24 44 0
22 40 -44 0
-23 -25 -44 0
23 -30 -38 0
23 41 -46 0
24 33 -37 0
24 42 -46 0
-25 29 -30 0
-25 30 -34 0
26 32 46 0
-30 -32 36 0
-31 33 43 0
32 -34 36 0
32 -37 -44 0
33 -37 -44 0
-34 -37 40 0
